Gurobi Optimizer version 9.1.2 build v9.1.2rc0 (linux64)
Thread count: 36 physical cores, 72 logical processors, using up to 32 threads
Optimize a model with 12 rows, 57 columns and 590 nonzeros
Model fingerprint: 0xf32eec78
Model has 47 quadratic constraints
Coefficient statistics:
  Matrix range     [2e-05, 3e+00]
  QMatrix range    [1e+00, 1e+00]
  QLMatrix range   [1e+00, 1e+00]
  Objective range  [8e-03, 7e-01]
  Bounds range     [1e+00, 1e+00]
  RHS range        [1e+00, 1e+00]
Presolve removed 9 rows and 0 columns

Continuous model is non-convex -- solving as a MIP.

Presolve removed 9 rows and 0 columns
Presolve time: 0.00s
Presolved: 189 rows, 57 columns, 443 nonzeros
Presolved model has 47 bilinear constraint(s)
Variable types: 57 continuous, 0 integer (0 binary)

Root relaxation: objective -1.743721e+00, 44 iterations, 0.00 seconds

    Nodes    |    Current Node    |     Objective Bounds      |     Work
 Expl Unexpl |  Obj  Depth IntInf | Incumbent    BestBd   Gap | It/Node Time

     0     0   -1.74372    0   38          -   -1.74372      -     -    0s
H    0     0                       0.6147548   -1.74372   384%     -    0s
     0     0   -1.64739    0    1    0.61475   -1.64739   368%     -    0s
H    0     0                      -1.6450460   -1.64739  0.14%     -    0s
     0     0     cutoff    0        -1.64505   -1.64505  0.00%     -    0s

Cutting planes:
  RLT: 25
  BQP: 3

Explored 1 nodes (76 simplex iterations) in 0.01 seconds
Thread count was 32 (of 72 available processors)

Solution count 2: -1.64505 0.614755 
No other solutions better than -1.64505

Optimal solution found (tolerance 1.00e-04)
Best objective -1.645045978473e+00, best bound -1.645045978473e+00, gap 0.0000%

User-callback calls 78, time in user-callback 0.00 sec
Gurobi Optimizer version 9.1.2 build v9.1.2rc0 (linux64)
Thread count: 36 physical cores, 72 logical processors, using up to 32 threads
Optimize a model with 24 rows, 125 columns and 2580 nonzeros
Model fingerprint: 0xa4a37dcc
Model has 105 quadratic constraints
Coefficient statistics:
  Matrix range     [7e-06, 5e+01]
  QMatrix range    [1e+00, 1e+00]
  QLMatrix range   [1e+00, 1e+00]
  Objective range  [2e-02, 1e+00]
  Bounds range     [1e+00, 1e+00]
  RHS range        [1e+00, 1e+00]
Presolve removed 10 rows and 0 columns

Continuous model is non-convex -- solving as a MIP.

Presolve removed 10 rows and 0 columns
Presolve time: 0.00s
Presolved: 429 rows, 125 columns, 2142 nonzeros
Presolved model has 105 bilinear constraint(s)
Variable types: 125 continuous, 0 integer (0 binary)

Root relaxation: objective -7.001499e+00, 129 iterations, 0.00 seconds

    Nodes    |    Current Node    |     Objective Bounds      |     Work
 Expl Unexpl |  Obj  Depth IntInf | Incumbent    BestBd   Gap | It/Node Time

     0     0   -7.00150    0   57          -   -7.00150      -     -    0s
H    0     0                      -0.3418086   -7.00150  1948%     -    0s
     0     0   -5.61048    0   95   -0.34181   -5.61048  1541%     -    0s
H    0     0                      -1.1715432   -5.61048   379%     -    0s
     0     0   -5.48505    0   95   -1.17154   -5.48505   368%     -    0s
     0     0   -5.23172    0   39   -1.17154   -5.23172   347%     -    0s
H    0     0                      -2.7080055   -5.23172  93.2%     -    0s
     0     0   -5.23015    0   39   -2.70801   -5.23015  93.1%     -    0s
     0     0   -5.12683    0   83   -2.70801   -5.12683  89.3%     -    0s
     0     0   -5.12514    0   70   -2.70801   -5.12514  89.3%     -    0s
     0     0   -5.11036    0   85   -2.70801   -5.11036  88.7%     -    0s
     0     0   -5.10910    0   84   -2.70801   -5.10910  88.7%     -    0s
     0     0   -5.10107    0   91   -2.70801   -5.10107  88.4%     -    0s
     0     0   -5.10101    0   84   -2.70801   -5.10101  88.4%     -    0s
     0     0   -5.09880    0   91   -2.70801   -5.09880  88.3%     -    0s
     0     0   -5.09737    0   70   -2.70801   -5.09737  88.2%     -    0s
     0     0   -5.09652    0   70   -2.70801   -5.09652  88.2%     -    0s
H    0     0                      -3.5330380   -5.09652  44.3%     -    0s
H    0     0                      -3.6325103   -5.09652  40.3%     -    0s
H    0     0                      -3.7916366   -5.09652  34.4%     -    0s
H    0     0                      -3.8815353   -5.09652  31.3%     -    0s
     0     2   -5.09652    0   70   -3.88154   -5.09652  31.3%     -    0s
*  502   356              19      -3.8818712   -4.62565  19.2%  31.8    0s
*  603   432              19      -3.8818902   -4.55355  17.3%  29.0    0s
*  604   432              18      -3.8819146   -4.55355  17.3%  29.0    0s
*  656   432              23      -4.2434199   -4.55355  7.31%  27.6    0s
* 1021   498              24      -4.3030482   -4.51109  4.83%  22.6    0s
* 1082   496              22      -4.3031648   -4.51109  4.83%  21.8    0s
* 1115   496              20      -4.3335566   -4.51109  4.10%  21.3    0s
* 1288   405              22      -4.3353094   -4.46271  2.94%  19.3    0s
* 1290   405              23      -4.3353164   -4.46271  2.94%  19.3    0s
* 1565   111              22      -4.3353590   -4.34732  0.28%  16.8    0s
* 1630   111              21      -4.3353598   -4.34732  0.28%  16.2    0s
* 1639   111              22      -4.3353598   -4.34732  0.28%  16.1    0s
* 1643   111              23      -4.3353601   -4.34732  0.28%  16.1    0s
* 1898     0              20      -4.3353609   -4.33536  0.00%  14.0    0s

Cutting planes:
  RLT: 55
  BQP: 8
  PSD: 56

Explored 1969 nodes (26974 simplex iterations) in 0.61 seconds
Thread count was 32 (of 72 available processors)

Solution count 10: -4.33536 -4.33536 -4.33536 ... -3.88191
No other solutions better than -4.33536

Optimal solution found (tolerance 1.00e-04)
Best objective -4.335360854205e+00, best bound -4.335360854205e+00, gap 0.0000%

User-callback calls 4220, time in user-callback 0.00 sec



objective value: -4.335360854205496
objective bound: -4.335360854205496
x_opt: [1.0, 0.0, 1.0, 0.0, 0.18037908403521602, 0.0, 1.0, 1.0, 0.4760638932106164, 0.0, 0.0, 0.0, 0.7611825068939753, 0.0, 0.45401809209503985, 0.3120939588964975, 0.0, 0.0, 0.0, 0.0]
GUROBI solution time: 0.608957052230835




